17135
1 0 0 0 0 1 1 1 1 1 0 1 0 0 1 1 1 1 0 0 1 1 0 0 1 1 0 1 0 0 
20 11 20 14 20 5 17 9 14 17 9 16 8 20 17 14 14 17 5 11 14 0 5 17 5 8 17 24 5 24 5 25 6 25 20 20 24 15 0 14 0 14 15 8 24 14 0 20 27 8 5 14 14 5 20 20 17 11 0 14 0 5 20 11 11 11 9 0 5 9 20 6 11 17 24 8 9 20 14 24 20 7 8 17 17 17 17 7 20 5 17 24 17 11 17 5 14 7 21 16 8 7 0 25 0 25 7 11 8 8 0 14 0 11 11 21 24 24 24 24 5 8 25 8 16 0 5 9 0 21 0 11 24 5 8 8 7 25 8 0 11 8 6 7 7 25 25 11 7 24 

Total Run Time: 261252 ms.
